0 29 107 116 152 201 212 274 330 374 
29 396 675 750 761 830 858 904 950 1022 
107 198 283 322 396 486 496 508 597 642 
198 486 581 750 904 1052 1104 1189 1287 1309 
665 1703 1709 1830 1891 2036 2105 2126 2175 2247 
581 858 1352 1404 1499 1547 1619 1666 1731 1737 
860 1666 1703 1764 1777 1809 1830 1862 1951 1981 
1890 1921 2007 2494 2636 2668 2756 2775 2823 2859 
1829 2053 2938 3014 3065 3150 3161 3201 3290 3316 
1731 1816 1829 2300 2307 2371 2447 2494 2546 2636 
